NAME: line_30_4
TYPE: TSP
COMMENT: line_30_4
DIMENSION: 30
EDGE_WEIGHT_TYPE: EUC_2D
NODE_COORD_SECTION
1 0.0 166.0
2 0.0 46.0
3 0.0 257.0
4 0.0 160.0
5 0.0 147.0
6 0.0 182.0
7 0.0 193.0
8 0.0 59.0
9 0.0 146.0
10 0.0 202.0
11 0.0 140.0
12 0.0 68.0
13 0.0 171.0
14 0.0 289.0
15 0.0 110.0
16 0.0 207.0
17 0.0 200.0
18 0.0 195.0
19 0.0 87.0
20 0.0 142.0
21 0.0 36.0
22 0.0 294.0
23 0.0 96.0
24 0.0 42.0
25 0.0 248.0
26 0.0 298.0
27 0.0 194.0
28 0.0 84.0
29 0.0 126.0
30 0.0 280.0
